objective value:                                    0
o_19                                                1 	(obj:0)
o_21                                                1 	(obj:0)
o_27                                                1 	(obj:0)
o_29                                                1 	(obj:0)
x_1                                                 5 	(obj:0)
x_2                                                 2 	(obj:0)
x_3                                                 5 	(obj:0)
x_4                                                 6 	(obj:0)
x_5                                                 5 	(obj:0)
x_6                                                 6 	(obj:0)
x_7                                                 4 	(obj:0)
x_8                                                 5 	(obj:0)
x_9                                                 5 	(obj:0)
x_10                                                2 	(obj:0)
x_11                                                3 	(obj:0)
x_12                                                5 	(obj:0)
x_13                                                4 	(obj:0)
x_14                                                4 	(obj:0)
x_0                                                 8 	(obj:0)
